(set-logic HORN)
(declare-fun state (Int (Array Int Int) (Array Int Int) (Array Int Int) Int Int (Array Int Int) (Array Int Int) Int Int Int Int Int Int Int Int Int Int Int Int Int Int Int Int Int Int Bool Bool Bool Bool Bool Int Int (Array Int Int)) Bool)
(assert (forall ((|hhv_ULTIMATE.start_ULTIMATE.startEXIT_0_Int| Int) (|hhv_ULTIMATE.start_ULTIMATE.startEXIT_1_Array_Int_Int| (Array Int Int)) (|hhv_ULTIMATE.start_ULTIMATE.startEXIT_2_Array_Int_Int| (Array Int Int)) (|hhv_ULTIMATE.start_ULTIMATE.startEXIT_3_Array_Int_Array_Int_Int| (Array Int Int)) (|hhv_ULTIMATE.start_ULTIMATE.startEXIT_4_Int| Int) (|hhv_ULTIMATE.start_ULTIMATE.startEXIT_5_Int| Int) (|hhv_ULTIMATE.start_ULTIMATE.startEXIT_6_Array_Int_Int| (Array Int Int)) (|hhv_ULTIMATE.start_ULTIMATE.startEXIT_7_Array_Int_Int| (Array Int Int)) (|hhv_ULTIMATE.start_ULTIMATE.startEXIT_8_Int| Int) (|hhv_ULTIMATE.start_ULTIMATE.startEXIT_9_Int| Int) (|hhv_ULTIMATE.start_ULTIMATE.startEXIT_10_Int| Int) (|hhv_ULTIMATE.start_ULTIMATE.startEXIT_11_Int| Int) (|hhv_ULTIMATE.start_ULTIMATE.startEXIT_12_Int| Int) (|hhv_ULTIMATE.start_ULTIMATE.startEXIT_13_Int| Int) (|hhv_ULTIMATE.start_ULTIMATE.startEXIT_14_Int| Int) (|hhv_ULTIMATE.start_ULTIMATE.startEXIT_15_Int| Int) (|hhv_ULTIMATE.start_ULTIMATE.startEXIT_16_Int| Int) (|hhv_ULTIMATE.start_ULTIMATE.startEXIT_17_Int| Int) (|hhv_ULTIMATE.start_ULTIMATE.startEXIT_18_Int| Int) (|hhv_ULTIMATE.start_ULTIMATE.startEXIT_19_Int| Int) (|hhv_ULTIMATE.start_ULTIMATE.startEXIT_20_Int| Int) (|hhv_ULTIMATE.start_ULTIMATE.startEXIT_21_Int| Int) (|hhv_ULTIMATE.start_ULTIMATE.startEXIT_22_Int| Int) (|hhv_ULTIMATE.start_ULTIMATE.startEXIT_23_Int| Int) (|hhv_ULTIMATE.start_ULTIMATE.startEXIT_24_Int| Int) (|hhv_ULTIMATE.start_ULTIMATE.startEXIT_25_Int| Int) (|hbv_ULTIMATE.start_L2-1_26_Bool| Bool) (|.loc.5| Bool) (|.loc.6| Bool) (|.loc.7| Bool) (|.loc.8| Bool) (|hbv_ULTIMATE.start_L9_20_Int| Int) (|hbv_ULTIMATE.start_L9_19_Int| Int) (|hbv_ULTIMATE.start_L-1_1_Array_Int_Int| (Array Int Int)) (|.x.431| Int) (|.x.429| (Array Int Int)) (|.x.427| Int) (|.x.425| (Array Int Int)) (|.x.422| Int) (|.x.424| (Array Int Int)) (|.x.423| (Array Int Int)) (|hhv_ULTIMATE.start_ULTIMATE.startEXIT_26_Bool| Bool) (|.x.432| Int) (|.x.437| Int) (|.x.439| Int) (|.x.440| Int) (|.x.443| Int) (|.x.445| Int) (|.loc.10| Bool) (|.loc.12| Bool) (|.loc.11| Bool) (|.x.444| Int) (|.x.433| Int) (|.x.446| Int) (|.x.447| Int) (|.loc.9| Bool) (|.x.436| Int) (|.x.434| Int) (|.x.435| Int) (|.x.442| Int) (|.x.441| Int) (|.x.428| (Array Int Int)) (|.x.426| Int) (|.x.430| Int) (|.x.438| Int) (|.xtv.1| Int) (|.xtv.2| Int) (|.xtv.3| (Array Int Int))) (=> (and (and (and (and .loc.6 (not .loc.5)) (not .loc.7)) (not .loc.8)) (and (and (and (and (not hbv_ULTIMATE.start_L2-1_26_Bool) (= hhv_ULTIMATE.start_ULTIMATE.startEXIT_1_Array_Int_Int hhv_ULTIMATE.start_ULTIMATE.startEXIT_2_Array_Int_Int)) (= hhv_ULTIMATE.start_ULTIMATE.startEXIT_6_Array_Int_Int hhv_ULTIMATE.start_ULTIMATE.startEXIT_7_Array_Int_Int)) (= hhv_ULTIMATE.start_ULTIMATE.startEXIT_8_Int hhv_ULTIMATE.start_ULTIMATE.startEXIT_9_Int)) (= hhv_ULTIMATE.start_ULTIMATE.startEXIT_4_Int hhv_ULTIMATE.start_ULTIMATE.startEXIT_5_Int))) (state |hhv_ULTIMATE.start_ULTIMATE.startEXIT_0_Int| |hhv_ULTIMATE.start_ULTIMATE.startEXIT_1_Array_Int_Int| |hhv_ULTIMATE.start_ULTIMATE.startEXIT_2_Array_Int_Int| |hhv_ULTIMATE.start_ULTIMATE.startEXIT_3_Array_Int_Array_Int_Int| |hhv_ULTIMATE.start_ULTIMATE.startEXIT_4_Int| |hhv_ULTIMATE.start_ULTIMATE.startEXIT_5_Int| |hhv_ULTIMATE.start_ULTIMATE.startEXIT_6_Array_Int_Int| |hhv_ULTIMATE.start_ULTIMATE.startEXIT_7_Array_Int_Int| |hhv_ULTIMATE.start_ULTIMATE.startEXIT_8_Int| |hhv_ULTIMATE.start_ULTIMATE.startEXIT_9_Int| |hhv_ULTIMATE.start_ULTIMATE.startEXIT_10_Int| |hhv_ULTIMATE.start_ULTIMATE.startEXIT_11_Int| |hhv_ULTIMATE.start_ULTIMATE.startEXIT_12_Int| |hhv_ULTIMATE.start_ULTIMATE.startEXIT_13_Int| |hhv_ULTIMATE.start_ULTIMATE.startEXIT_14_Int| |hhv_ULTIMATE.start_ULTIMATE.startEXIT_15_Int| |hhv_ULTIMATE.start_ULTIMATE.startEXIT_16_Int| |hhv_ULTIMATE.start_ULTIMATE.startEXIT_17_Int| |hhv_ULTIMATE.start_ULTIMATE.startEXIT_18_Int| |hhv_ULTIMATE.start_ULTIMATE.startEXIT_19_Int| |hhv_ULTIMATE.start_ULTIMATE.startEXIT_20_Int| |hhv_ULTIMATE.start_ULTIMATE.startEXIT_21_Int| |hhv_ULTIMATE.start_ULTIMATE.startEXIT_22_Int| |hhv_ULTIMATE.start_ULTIMATE.startEXIT_23_Int| |hhv_ULTIMATE.start_ULTIMATE.startEXIT_24_Int| |hhv_ULTIMATE.start_ULTIMATE.startEXIT_25_Int| |hbv_ULTIMATE.start_L2-1_26_Bool| |.loc.5| |.loc.6| |.loc.7| |.loc.8| |hbv_ULTIMATE.start_L9_20_Int| |hbv_ULTIMATE.start_L9_19_Int| |hbv_ULTIMATE.start_L-1_1_Array_Int_Int|))))
(assert (forall ((|hhv_ULTIMATE.start_ULTIMATE.startEXIT_0_Int| Int) (|hhv_ULTIMATE.start_ULTIMATE.startEXIT_1_Array_Int_Int| (Array Int Int)) (|hhv_ULTIMATE.start_ULTIMATE.startEXIT_2_Array_Int_Int| (Array Int Int)) (|hhv_ULTIMATE.start_ULTIMATE.startEXIT_3_Array_Int_Array_Int_Int| (Array Int Int)) (|hhv_ULTIMATE.start_ULTIMATE.startEXIT_4_Int| Int) (|hhv_ULTIMATE.start_ULTIMATE.startEXIT_5_Int| Int) (|hhv_ULTIMATE.start_ULTIMATE.startEXIT_6_Array_Int_Int| (Array Int Int)) (|hhv_ULTIMATE.start_ULTIMATE.startEXIT_7_Array_Int_Int| (Array Int Int)) (|hhv_ULTIMATE.start_ULTIMATE.startEXIT_8_Int| Int) (|hhv_ULTIMATE.start_ULTIMATE.startEXIT_9_Int| Int) (|hhv_ULTIMATE.start_ULTIMATE.startEXIT_10_Int| Int) (|hhv_ULTIMATE.start_ULTIMATE.startEXIT_11_Int| Int) (|hhv_ULTIMATE.start_ULTIMATE.startEXIT_12_Int| Int) (|hhv_ULTIMATE.start_ULTIMATE.startEXIT_13_Int| Int) (|hhv_ULTIMATE.start_ULTIMATE.startEXIT_14_Int| Int) (|hhv_ULTIMATE.start_ULTIMATE.startEXIT_15_Int| Int) (|hhv_ULTIMATE.start_ULTIMATE.startEXIT_16_Int| Int) (|hhv_ULTIMATE.start_ULTIMATE.startEXIT_17_Int| Int) (|hhv_ULTIMATE.start_ULTIMATE.startEXIT_18_Int| Int) (|hhv_ULTIMATE.start_ULTIMATE.startEXIT_19_Int| Int) (|hhv_ULTIMATE.start_ULTIMATE.startEXIT_20_Int| Int) (|hhv_ULTIMATE.start_ULTIMATE.startEXIT_21_Int| Int) (|hhv_ULTIMATE.start_ULTIMATE.startEXIT_22_Int| Int) (|hhv_ULTIMATE.start_ULTIMATE.startEXIT_23_Int| Int) (|hhv_ULTIMATE.start_ULTIMATE.startEXIT_24_Int| Int) (|hhv_ULTIMATE.start_ULTIMATE.startEXIT_25_Int| Int) (|hbv_ULTIMATE.start_L2-1_26_Bool| Bool) (|.loc.5| Bool) (|.loc.6| Bool) (|.loc.7| Bool) (|.loc.8| Bool) (|hbv_ULTIMATE.start_L9_20_Int| Int) (|hbv_ULTIMATE.start_L9_19_Int| Int) (|hbv_ULTIMATE.start_L-1_1_Array_Int_Int| (Array Int Int)) (|.x.431| Int) (|.x.429| (Array Int Int)) (|.x.427| Int) (|.x.425| (Array Int Int)) (|.x.422| Int) (|.x.424| (Array Int Int)) (|.x.423| (Array Int Int)) (|hhv_ULTIMATE.start_ULTIMATE.startEXIT_26_Bool| Bool) (|.x.432| Int) (|.x.437| Int) (|.x.439| Int) (|.x.440| Int) (|.x.443| Int) (|.x.445| Int) (|.loc.10| Bool) (|.loc.12| Bool) (|.loc.11| Bool) (|.x.444| Int) (|.x.433| Int) (|.x.446| Int) (|.x.447| Int) (|.loc.9| Bool) (|.x.436| Int) (|.x.434| Int) (|.x.435| Int) (|.x.442| Int) (|.x.441| Int) (|.x.428| (Array Int Int)) (|.x.426| Int) (|.x.430| Int) (|.x.438| Int) (|.xtv.1| Int) (|.xtv.2| Int) (|.xtv.3| (Array Int Int))) (=> (and (state |hhv_ULTIMATE.start_ULTIMATE.startEXIT_0_Int| |hhv_ULTIMATE.start_ULTIMATE.startEXIT_1_Array_Int_Int| |hhv_ULTIMATE.start_ULTIMATE.startEXIT_2_Array_Int_Int| |hhv_ULTIMATE.start_ULTIMATE.startEXIT_3_Array_Int_Array_Int_Int| |hhv_ULTIMATE.start_ULTIMATE.startEXIT_4_Int| |hhv_ULTIMATE.start_ULTIMATE.startEXIT_5_Int| |hhv_ULTIMATE.start_ULTIMATE.startEXIT_6_Array_Int_Int| |hhv_ULTIMATE.start_ULTIMATE.startEXIT_7_Array_Int_Int| |hhv_ULTIMATE.start_ULTIMATE.startEXIT_8_Int| |hhv_ULTIMATE.start_ULTIMATE.startEXIT_9_Int| |hhv_ULTIMATE.start_ULTIMATE.startEXIT_10_Int| |hhv_ULTIMATE.start_ULTIMATE.startEXIT_11_Int| |hhv_ULTIMATE.start_ULTIMATE.startEXIT_12_Int| |hhv_ULTIMATE.start_ULTIMATE.startEXIT_13_Int| |hhv_ULTIMATE.start_ULTIMATE.startEXIT_14_Int| |hhv_ULTIMATE.start_ULTIMATE.startEXIT_15_Int| |hhv_ULTIMATE.start_ULTIMATE.startEXIT_16_Int| |hhv_ULTIMATE.start_ULTIMATE.startEXIT_17_Int| |hhv_ULTIMATE.start_ULTIMATE.startEXIT_18_Int| |hhv_ULTIMATE.start_ULTIMATE.startEXIT_19_Int| |hhv_ULTIMATE.start_ULTIMATE.startEXIT_20_Int| |hhv_ULTIMATE.start_ULTIMATE.startEXIT_21_Int| |hhv_ULTIMATE.start_ULTIMATE.startEXIT_22_Int| |hhv_ULTIMATE.start_ULTIMATE.startEXIT_23_Int| |hhv_ULTIMATE.start_ULTIMATE.startEXIT_24_Int| |hhv_ULTIMATE.start_ULTIMATE.startEXIT_25_Int| |hbv_ULTIMATE.start_L2-1_26_Bool| |.loc.5| |.loc.6| |.loc.7| |.loc.8| |hbv_ULTIMATE.start_L9_20_Int| |hbv_ULTIMATE.start_L9_19_Int| |hbv_ULTIMATE.start_L-1_1_Array_Int_Int|) (let ((.def_44 (not .loc.5))) (let ((.def_46 (not .loc.7))) (let ((.def_48 (not .loc.8))) (let ((.def_78 (= hhv_ULTIMATE.start_ULTIMATE.startEXIT_1_Array_Int_Int .x.423))) (let ((.def_82 (= hhv_ULTIMATE.start_ULTIMATE.startEXIT_10_Int .x.432))) (let ((.def_85 (= hhv_ULTIMATE.start_ULTIMATE.startEXIT_15_Int .x.437))) (let ((.def_88 (= hhv_ULTIMATE.start_ULTIMATE.startEXIT_17_Int .x.439))) (let ((.def_91 (= hhv_ULTIMATE.start_ULTIMATE.startEXIT_18_Int .x.440))) (let ((.def_94 (= hhv_ULTIMATE.start_ULTIMATE.startEXIT_21_Int .x.443))) (let ((.def_97 (= hhv_ULTIMATE.start_ULTIMATE.startEXIT_23_Int .x.445))) (let ((.def_113 (not .loc.6))) (let ((.def_117 (= hbv_ULTIMATE.start_L2-1_26_Bool hhv_ULTIMATE.start_ULTIMATE.startEXIT_26_Bool))) (let ((.def_122 (not .loc.10))) (let ((.def_126 (not .loc.11))) (let ((.def_129 (= hhv_ULTIMATE.start_ULTIMATE.startEXIT_11_Int 0))) (let ((.def_131 (and .def_78 .def_82))) (let ((.def_136 (and .def_97 (and .def_94 (and .def_91 (and .def_88 (and .def_85 .def_131))))))) (let ((.def_144 (not .loc.12))) (let ((.def_149 (= hhv_ULTIMATE.start_ULTIMATE.startEXIT_22_Int .x.444))) (let ((.def_151 (= hhv_ULTIMATE.start_ULTIMATE.startEXIT_11_Int .x.433))) (let ((.def_154 (= hhv_ULTIMATE.start_ULTIMATE.startEXIT_24_Int .x.446))) (let ((.def_157 (= hhv_ULTIMATE.start_ULTIMATE.startEXIT_25_Int .x.447))) (let ((.def_165 (select hhv_ULTIMATE.start_ULTIMATE.startEXIT_3_Array_Int_Array_Int_Int hhv_ULTIMATE.start_ULTIMATE.startEXIT_21_Int))) (let ((.def_170 (select hhv_ULTIMATE.start_ULTIMATE.startEXIT_3_Array_Int_Array_Int_Int hhv_ULTIMATE.start_ULTIMATE.startEXIT_17_Int))) (let ((.def_174 (<= 100000 hhv_ULTIMATE.start_ULTIMATE.startEXIT_14_Int))) (let ((.def_194 (not .loc.9))) (let ((.def_199 (= hhv_ULTIMATE.start_ULTIMATE.startEXIT_14_Int .x.436))) (let ((.def_201 (= hhv_ULTIMATE.start_ULTIMATE.startEXIT_12_Int .x.434))) (let ((.def_209 (and .def_131 .def_151))) (let ((.def_227 (= hhv_ULTIMATE.start_ULTIMATE.startEXIT_16_Int 0))) (let ((.def_232 (and .def_201 .def_209))) (let ((.def_261 (and .def_157 (and .def_154 (and .def_97 (and .def_149 (and .def_94 (and .def_91 (and .def_88 (and .def_85 (and .def_199 .def_232))))))))))) (let ((.def_276 (and .def_201 (and .def_151 (and .def_82 (and hbv_ULTIMATE.start_L2-1_26_Bool .def_78)))))) (let ((.def_286 (and .loc.5 (and .def_157 (and .def_154 (and .def_97 (and .def_149 (and .def_94 (and .def_91 (and .def_88 (and .def_85 (and .def_199 .def_276)))))))))))) (let ((.def_297 (and .loc.5 .def_261))) (let ((.def_317 (<= 100000 hhv_ULTIMATE.start_ULTIMATE.startEXIT_13_Int))) (let ((.def_330 (= hhv_ULTIMATE.start_ULTIMATE.startEXIT_13_Int .x.435))) (let ((.def_394 (= hhv_ULTIMATE.start_ULTIMATE.startEXIT_6_Array_Int_Int .x.428))) (let ((.def_396 (= hhv_ULTIMATE.start_ULTIMATE.startEXIT_4_Int .x.426))) (let ((.def_399 (= hhv_ULTIMATE.start_ULTIMATE.startEXIT_8_Int .x.430))) (let ((.def_402 (= hhv_ULTIMATE.start_ULTIMATE.startEXIT_16_Int .x.438))) (let ((.def_433 (store hbv_ULTIMATE.start_L-1_1_Array_Int_Int .x.439 1))) (let ((.def_463 (= hbv_ULTIMATE.start_L9_20_Int hbv_ULTIMATE.start_L9_19_Int))) (let ((.def_476 (and .def_85 (and .def_199 (and .def_330 (and .def_201 (and .def_151 (and .def_82 (and .def_399 (and .def_394 (and .def_78 .def_396))))))))))) (let ((.def_505 (or hbv_ULTIMATE.start_L2-1_26_Bool (and (and (= hbv_ULTIMATE.start_L9_19_Int (select .def_165 (+ (* 4 hhv_ULTIMATE.start_ULTIMATE.startEXIT_13_Int) hhv_ULTIMATE.start_ULTIMATE.startEXIT_23_Int))) (not .def_317)) (= hbv_ULTIMATE.start_L9_20_Int (select .def_170 (+ hhv_ULTIMATE.start_ULTIMATE.startEXIT_10_Int (* 4 hhv_ULTIMATE.start_ULTIMATE.startEXIT_13_Int)))))))) (and (and (= hhv_ULTIMATE.start_ULTIMATE.startEXIT_9_Int .x.431) (and (= hhv_ULTIMATE.start_ULTIMATE.startEXIT_7_Array_Int_Int .x.429) (and (= hhv_ULTIMATE.start_ULTIMATE.startEXIT_5_Int .x.427) (and (= hhv_ULTIMATE.start_ULTIMATE.startEXIT_3_Array_Int_Array_Int_Int .x.425) (and (= hhv_ULTIMATE.start_ULTIMATE.startEXIT_0_Int .x.422) (= hhv_ULTIMATE.start_ULTIMATE.startEXIT_2_Array_Int_Int .x.424)))))) (or (or (or (and (or (or (or (and (or (or (or (or (or (or (or (and (or (and (or (and (or (and .def_48 (and .loc.7 (and .loc.6 (and .loc.5 (and (and (and (and (and (and (and .def_78 hhv_ULTIMATE.start_ULTIMATE.startEXIT_26_Bool) .def_82) .def_85) .def_88) .def_91) .def_94) .def_97))))) (and (or hbv_ULTIMATE.start_L2-1_26_Bool (and (= .x.440 0) (= .x.423 (store (store hhv_ULTIMATE.start_ULTIMATE.startEXIT_1_Array_Int_Int hhv_ULTIMATE.start_ULTIMATE.startEXIT_17_Int 0) hhv_ULTIMATE.start_ULTIMATE.startEXIT_21_Int 0)))) (and (and (or hhv_ULTIMATE.start_ULTIMATE.startEXIT_26_Bool (= .x.437 .x.440)) (and .def_44 (and (and .loc.8 .def_46) .def_113))) .def_117))) (and (and .def_122 .loc.12) .def_126)) (and (or hbv_ULTIMATE.start_L2-1_26_Bool .def_129) (and (and .def_117 (and .def_44 (and .loc.11 (and .loc.10 (and .def_48 (and .loc.7 (and .loc.6 .def_136))))))) .def_144))) (and (and (and (and .def_149 .def_151) .def_154) .def_157) .loc.9)) (and (or hbv_ULTIMATE.start_L2-1_26_Bool (and (= .x.446 (select .def_165 (+ (* 4 hhv_ULTIMATE.start_ULTIMATE.startEXIT_14_Int) hhv_ULTIMATE.start_ULTIMATE.startEXIT_23_Int))) (and (= .x.447 (select .def_170 (+ hhv_ULTIMATE.start_ULTIMATE.startEXIT_10_Int (* 4 hhv_ULTIMATE.start_ULTIMATE.startEXIT_14_Int)))) (and (not .def_174) (and (= .x.444 .x.433) (= .x.444 (ite (= .x.446 .x.447) 1 0))))))) (and (and .def_144 (and .def_117 (and .def_113 (and .loc.11 (and .loc.10 (and .def_48 (and .loc.7 (and .loc.5 .def_136)))))))) .def_194))) (and .def_199 .def_201)) (and (or hhv_ULTIMATE.start_ULTIMATE.startEXIT_26_Bool (= (+ hhv_ULTIMATE.start_ULTIMATE.startEXIT_14_Int (* (- 1) .x.436)) (- 1))) (and .def_144 (and .def_117 (and .def_44 (and .def_113 (and .def_46 (and .def_122 (and .loc.11 (and .loc.9 (and .def_48 (and .def_97 (and .def_149 (and .def_94 (and .def_91 (and .def_88 (and .def_85 .def_209))))))))))))))))) (and (or hbv_ULTIMATE.start_L2-1_26_Bool (and (not .def_227) (= .x.436 0))) (and .def_144 (and .def_117 (and .def_44 (and .def_113 (and .def_122 (and .loc.11 (and .loc.9 (and .def_48 (and .loc.7 (and .def_157 (and .def_154 (and .def_97 (and .def_149 (and .def_94 (and .def_91 (and .def_88 (and .def_85 .def_232))))))))))))))))))) (and (or hbv_ULTIMATE.start_L2-1_26_Bool .def_227) (and .def_194 (and .def_117 (and .def_44 (and .def_113 (and .def_126 (and .def_122 (and .loc.12 (and .def_48 (and .loc.7 .def_261))))))))))) (and .def_194 (and .def_117 (and .def_113 (and .def_126 (and .def_122 (and .loc.12 (and .def_48 (and .loc.7 .def_286))))))))) (and (or hbv_ULTIMATE.start_L2-1_26_Bool .def_174) (and .def_194 (and .def_117 (and .def_113 (and .def_126 (and .def_122 (and .loc.12 (and .def_48 (and .loc.7 .def_297)))))))))) (and .def_194 (and .def_144 (and .def_117 (and .def_46 (and .def_122 (and .loc.11 (and .def_48 (and .loc.6 .def_286))))))))) (and (or hbv_ULTIMATE.start_L2-1_26_Bool .def_317) (and .def_194 (and .def_144 (and .def_117 (and .def_46 (and .def_122 (and .loc.11 (and .def_48 (and .loc.6 .def_297)))))))))) .def_330) (and (or hbv_ULTIMATE.start_L2-1_26_Bool (= (+ hhv_ULTIMATE.start_ULTIMATE.startEXIT_13_Int (* (- 1) .x.435)) (- 1))) (and .def_144 (and .def_117 (and .def_113 (and .def_46 (and .def_126 (and .loc.10 (and .loc.9 (and .def_48 .def_297)))))))))) (and (or hbv_ULTIMATE.start_L2-1_26_Bool (not .def_129)) (and .def_194 (and .def_144 (and .def_117 (and .def_44 (and .def_126 (and .def_122 (and .def_48 (and .loc.7 (and .loc.6 (and .def_157 (and .def_154 (and .def_97 (and .def_149 (and .def_94 (and .def_91 (and .def_88 (and .def_85 (and .def_199 (and .def_232 .def_330))))))))))))))))))))) (and .def_194 (and .def_144 (and .def_117 (and .def_126 (and .def_122 (and .def_48 (and .loc.7 (and .loc.6 (and .loc.5 (and .def_157 (and .def_154 (and .def_97 (and .def_149 (and .def_94 (and .def_91 (and .def_88 (and .def_85 (and .def_199 (and .def_276 .def_330)))))))))))))))))))) (and (= hhv_ULTIMATE.start_ULTIMATE.startEXIT_20_Int .x.442) (and (= hhv_ULTIMATE.start_ULTIMATE.startEXIT_19_Int .x.441) (and (and (and .def_394 .def_396) .def_399) .def_402)))) (and (or hbv_ULTIMATE.start_L2-1_26_Bool (and (and (= .x.426 0) (= .x.430 0)) (= hbv_ULTIMATE.start_L-1_1_Array_Int_Int (store hhv_ULTIMATE.start_ULTIMATE.startEXIT_1_Array_Int_Int 0 0)))) (and (or hhv_ULTIMATE.start_ULTIMATE.startEXIT_26_Bool (and (and (and (and (and (and (and (and (and (and (and (not (<= .x.422 .x.439)) (not (= .x.443 0))) (not (<= .x.422 .x.443))) (= .x.445 0)) (= .x.438 1)) (= .x.435 0)) (= .x.428 (store (store hhv_ULTIMATE.start_ULTIMATE.startEXIT_6_Array_Int_Int .x.439 400000) .x.443 400000))) (= .x.423 (store .def_433 .x.443 1))) (= (select .def_433 .x.443) 0)) (not (= .x.439 0))) (= .x.432 0)) (= (select hbv_ULTIMATE.start_L-1_1_Array_Int_Int .x.439) 0))) (and .def_144 (and .def_117 (and .def_44 (and .def_46 (and .def_126 (and .loc.10 (and .loc.9 (and .def_48 (and .loc.6 (and .def_149 (and .def_85 .def_151)))))))))))))) (and (and (or hhv_ULTIMATE.start_ULTIMATE.startEXIT_26_Bool (and (not .def_463) (= .x.438 0))) (and .def_144 (and .def_117 (and .def_46 (and .def_126 (and .def_122 (and .loc.9 (and .def_48 (and .loc.6 (and .loc.5 (and .def_157 (and .def_154 (and .def_97 (and .def_149 (and .def_94 (and .def_91 (and .def_88 .def_476))))))))))))))))) .def_505)) (and (or hhv_ULTIMATE.start_ULTIMATE.startEXIT_26_Bool .def_463) (and .def_505 (and .def_144 (and .def_117 (and .def_46 (and .def_126 (and .def_122 (and .loc.9 (and .def_48 (and .loc.6 (and .loc.5 (and .def_157 (and .def_154 (and .def_97 (and .def_149 (and .def_94 (and .def_91 (and .def_88 (and .def_402 .def_476))))))))))))))))))))))))))))))))))))))))))))))))))))))))))))))))))) (state |.x.422| |.x.423| |.x.424| |.x.425| |.x.426| |.x.427| |.x.428| |.x.429| |.x.430| |.x.431| |.x.432| |.x.433| |.x.434| |.x.435| |.x.436| |.x.437| |.x.438| |.x.439| |.x.440| |.x.441| |.x.442| |.x.443| |.x.444| |.x.445| |.x.446| |.x.447| |hhv_ULTIMATE.start_ULTIMATE.startEXIT_26_Bool| |.loc.9| |.loc.10| |.loc.11| |.loc.12| |.xtv.1| |.xtv.2| |.xtv.3|))))
(assert (forall ((|hhv_ULTIMATE.start_ULTIMATE.startEXIT_0_Int| Int) (|hhv_ULTIMATE.start_ULTIMATE.startEXIT_1_Array_Int_Int| (Array Int Int)) (|hhv_ULTIMATE.start_ULTIMATE.startEXIT_2_Array_Int_Int| (Array Int Int)) (|hhv_ULTIMATE.start_ULTIMATE.startEXIT_3_Array_Int_Array_Int_Int| (Array Int Int)) (|hhv_ULTIMATE.start_ULTIMATE.startEXIT_4_Int| Int) (|hhv_ULTIMATE.start_ULTIMATE.startEXIT_5_Int| Int) (|hhv_ULTIMATE.start_ULTIMATE.startEXIT_6_Array_Int_Int| (Array Int Int)) (|hhv_ULTIMATE.start_ULTIMATE.startEXIT_7_Array_Int_Int| (Array Int Int)) (|hhv_ULTIMATE.start_ULTIMATE.startEXIT_8_Int| Int) (|hhv_ULTIMATE.start_ULTIMATE.startEXIT_9_Int| Int) (|hhv_ULTIMATE.start_ULTIMATE.startEXIT_10_Int| Int) (|hhv_ULTIMATE.start_ULTIMATE.startEXIT_11_Int| Int) (|hhv_ULTIMATE.start_ULTIMATE.startEXIT_12_Int| Int) (|hhv_ULTIMATE.start_ULTIMATE.startEXIT_13_Int| Int) (|hhv_ULTIMATE.start_ULTIMATE.startEXIT_14_Int| Int) (|hhv_ULTIMATE.start_ULTIMATE.startEXIT_15_Int| Int) (|hhv_ULTIMATE.start_ULTIMATE.startEXIT_16_Int| Int) (|hhv_ULTIMATE.start_ULTIMATE.startEXIT_17_Int| Int) (|hhv_ULTIMATE.start_ULTIMATE.startEXIT_18_Int| Int) (|hhv_ULTIMATE.start_ULTIMATE.startEXIT_19_Int| Int) (|hhv_ULTIMATE.start_ULTIMATE.startEXIT_20_Int| Int) (|hhv_ULTIMATE.start_ULTIMATE.startEXIT_21_Int| Int) (|hhv_ULTIMATE.start_ULTIMATE.startEXIT_22_Int| Int) (|hhv_ULTIMATE.start_ULTIMATE.startEXIT_23_Int| Int) (|hhv_ULTIMATE.start_ULTIMATE.startEXIT_24_Int| Int) (|hhv_ULTIMATE.start_ULTIMATE.startEXIT_25_Int| Int) (|hbv_ULTIMATE.start_L2-1_26_Bool| Bool) (|.loc.5| Bool) (|.loc.6| Bool) (|.loc.7| Bool) (|.loc.8| Bool) (|hbv_ULTIMATE.start_L9_20_Int| Int) (|hbv_ULTIMATE.start_L9_19_Int| Int) (|hbv_ULTIMATE.start_L-1_1_Array_Int_Int| (Array Int Int)) (|.x.431| Int) (|.x.429| (Array Int Int)) (|.x.427| Int) (|.x.425| (Array Int Int)) (|.x.422| Int) (|.x.424| (Array Int Int)) (|.x.423| (Array Int Int)) (|hhv_ULTIMATE.start_ULTIMATE.startEXIT_26_Bool| Bool) (|.x.432| Int) (|.x.437| Int) (|.x.439| Int) (|.x.440| Int) (|.x.443| Int) (|.x.445| Int) (|.loc.10| Bool) (|.loc.12| Bool) (|.loc.11| Bool) (|.x.444| Int) (|.x.433| Int) (|.x.446| Int) (|.x.447| Int) (|.loc.9| Bool) (|.x.436| Int) (|.x.434| Int) (|.x.435| Int) (|.x.442| Int) (|.x.441| Int) (|.x.428| (Array Int Int)) (|.x.426| Int) (|.x.430| Int) (|.x.438| Int) (|.xtv.1| Int) (|.xtv.2| Int) (|.xtv.3| (Array Int Int))) (=> (state |hhv_ULTIMATE.start_ULTIMATE.startEXIT_0_Int| |hhv_ULTIMATE.start_ULTIMATE.startEXIT_1_Array_Int_Int| |hhv_ULTIMATE.start_ULTIMATE.startEXIT_2_Array_Int_Int| |hhv_ULTIMATE.start_ULTIMATE.startEXIT_3_Array_Int_Array_Int_Int| |hhv_ULTIMATE.start_ULTIMATE.startEXIT_4_Int| |hhv_ULTIMATE.start_ULTIMATE.startEXIT_5_Int| |hhv_ULTIMATE.start_ULTIMATE.startEXIT_6_Array_Int_Int| |hhv_ULTIMATE.start_ULTIMATE.startEXIT_7_Array_Int_Int| |hhv_ULTIMATE.start_ULTIMATE.startEXIT_8_Int| |hhv_ULTIMATE.start_ULTIMATE.startEXIT_9_Int| |hhv_ULTIMATE.start_ULTIMATE.startEXIT_10_Int| |hhv_ULTIMATE.start_ULTIMATE.startEXIT_11_Int| |hhv_ULTIMATE.start_ULTIMATE.startEXIT_12_Int| |hhv_ULTIMATE.start_ULTIMATE.startEXIT_13_Int| |hhv_ULTIMATE.start_ULTIMATE.startEXIT_14_Int| |hhv_ULTIMATE.start_ULTIMATE.startEXIT_15_Int| |hhv_ULTIMATE.start_ULTIMATE.startEXIT_16_Int| |hhv_ULTIMATE.start_ULTIMATE.startEXIT_17_Int| |hhv_ULTIMATE.start_ULTIMATE.startEXIT_18_Int| |hhv_ULTIMATE.start_ULTIMATE.startEXIT_19_Int| |hhv_ULTIMATE.start_ULTIMATE.startEXIT_20_Int| |hhv_ULTIMATE.start_ULTIMATE.startEXIT_21_Int| |hhv_ULTIMATE.start_ULTIMATE.startEXIT_22_Int| |hhv_ULTIMATE.start_ULTIMATE.startEXIT_23_Int| |hhv_ULTIMATE.start_ULTIMATE.startEXIT_24_Int| |hhv_ULTIMATE.start_ULTIMATE.startEXIT_25_Int| |hbv_ULTIMATE.start_L2-1_26_Bool| |.loc.5| |.loc.6| |.loc.7| |.loc.8| |hbv_ULTIMATE.start_L9_20_Int| |hbv_ULTIMATE.start_L9_19_Int| |hbv_ULTIMATE.start_L-1_1_Array_Int_Int|) (not (and hbv_ULTIMATE.start_L2-1_26_Bool (and .loc.8 (and (not .loc.7) (and .loc.5 (not .loc.6)))))))))
(check-sat)
